(set-logic ALL)
(declare-const BAV1 Bool)
(declare-const BAV2 Bool)
(declare-const BAV3 Bool)
(declare-const GEN7 String)
(declare-const GEN6 String)
(declare-const GEN5 Int)
(declare-const GEN4 Int)
(declare-const GEN3 String)
(declare-const GEN2 Int)
(declare-const GEN1 Int)
(set-option :strings-exp true)
(declare-const input_0_1000 String)
(assert (= (str.substr input_0_1000 GEN1 GEN2) GEN3))
(assert (= (str.substr input_0_1000 GEN4 GEN5) GEN6))
(assert (not (= input_0_1000 GEN7)))
(assert (= BAV1 (= (str.substr input_0_1000 GEN1 GEN2) GEN3)))
(assert (= BAV2 (= (str.substr input_0_1000 GEN4 GEN5) GEN6)))
(assert (= BAV3 (= input_0_1000 GEN7)))
(check-sat)
(get-model)